(set-logic UF)
(declare-sort nat 0)
(declare-sort env 0)
(declare-sort form 0)
(declare-sort var_nat 0)
(declare-sort term_nat 0)
(declare-fun zero () nat)
(declare-fun s (nat) nat)
(declare-fun v0_nat () var_nat)
(declare-fun next_nat (var_nat) var_nat)
(declare-fun inj_nat (var_nat) term_nat)
(declare-fun zeroR () term_nat)
(declare-fun sR (term_nat) term_nat)
(declare-fun leqR (term_nat term_nat) form)
(declare-fun eq_nat (term_nat term_nat) form)
(declare-fun falseR () form)
(declare-fun orR (form form) form)
(declare-fun notR (form) form)
(declare-fun forallR_nat (var_nat form) form)
(declare-fun empty () env)
(declare-fun push_nat (env var_nat nat) env)
(declare-fun evalV_nat (env var_nat) nat)
(declare-fun eval_nat (env term_nat) nat)
(declare-fun leq (nat nat) Bool)
(declare-fun models (env form) Bool)
(assert (not (=> (and (not (leq (eval_nat (push_nat empty v0_nat (s (choice ((x0 nat)) (not (or (not (models (push_nat empty v0_nat x0) (leqR zeroR (inj_nat v0_nat)))) (models (push_nat empty v0_nat (s x0)) (leqR zeroR (inj_nat v0_nat)))))))) zeroR) (eval_nat (push_nat empty v0_nat (s (choice ((x0 nat)) (not (or (not (models (push_nat empty v0_nat x0) (leqR zeroR (inj_nat v0_nat)))) (models (push_nat empty v0_nat (s x0)) (leqR zeroR (inj_nat v0_nat)))))))) (inj_nat v0_nat)))) (= zero (eval_nat (push_nat empty v0_nat (s (choice ((x0 nat)) (not (or (not (models (push_nat empty v0_nat x0) (leqR zeroR (inj_nat v0_nat)))) (models (push_nat empty v0_nat (s x0)) (leqR zeroR (inj_nat v0_nat)))))))) zeroR)) (= zero (eval_nat (push_nat empty v0_nat (choice ((x0 nat)) (not (or (not (models (push_nat empty v0_nat x0) (leqR zeroR (inj_nat v0_nat)))) (models (push_nat empty v0_nat (s x0)) (leqR zeroR (inj_nat v0_nat))))))) zeroR)) (= (evalV_nat (push_nat empty v0_nat (s (choice ((x0 nat)) (not (or (not (models (push_nat empty v0_nat x0) (leqR zeroR (inj_nat v0_nat)))) (models (push_nat empty v0_nat (s x0)) (leqR zeroR (inj_nat v0_nat)))))))) v0_nat) (eval_nat (push_nat empty v0_nat (s (choice ((x0 nat)) (not (or (not (models (push_nat empty v0_nat x0) (leqR zeroR (inj_nat v0_nat)))) (models (push_nat empty v0_nat (s x0)) (leqR zeroR (inj_nat v0_nat)))))))) (inj_nat v0_nat))) (= (s (choice ((x0 nat)) (not (or (not (models (push_nat empty v0_nat x0) (leqR zeroR (inj_nat v0_nat)))) (models (push_nat empty v0_nat (s x0)) (leqR zeroR (inj_nat v0_nat))))))) (evalV_nat (push_nat empty v0_nat (s (choice ((x0 nat)) (not (or (not (models (push_nat empty v0_nat x0) (leqR zeroR (inj_nat v0_nat)))) (models (push_nat empty v0_nat (s x0)) (leqR zeroR (inj_nat v0_nat)))))))) v0_nat)) (= (choice ((x0 nat)) (not (or (not (models (push_nat empty v0_nat x0) (leqR zeroR (inj_nat v0_nat)))) (models (push_nat empty v0_nat (s x0)) (leqR zeroR (inj_nat v0_nat)))))) (evalV_nat (push_nat empty v0_nat (choice ((x0 nat)) (not (or (not (models (push_nat empty v0_nat x0) (leqR zeroR (inj_nat v0_nat)))) (models (push_nat empty v0_nat (s x0)) (leqR zeroR (inj_nat v0_nat))))))) v0_nat)) (= (evalV_nat (push_nat empty v0_nat (choice ((x0 nat)) (not (or (not (models (push_nat empty v0_nat x0) (leqR zeroR (inj_nat v0_nat)))) (models (push_nat empty v0_nat (s x0)) (leqR zeroR (inj_nat v0_nat))))))) v0_nat) (eval_nat (push_nat empty v0_nat (choice ((x0 nat)) (not (or (not (models (push_nat empty v0_nat x0) (leqR zeroR (inj_nat v0_nat)))) (models (push_nat empty v0_nat (s x0)) (leqR zeroR (inj_nat v0_nat))))))) (inj_nat v0_nat)))) (not (leq (eval_nat (push_nat empty v0_nat (choice ((x0 nat)) (not (or (not (models (push_nat empty v0_nat x0) (leqR zeroR (inj_nat v0_nat)))) (models (push_nat empty v0_nat (s x0)) (leqR zeroR (inj_nat v0_nat))))))) zeroR) (s (eval_nat (push_nat empty v0_nat (choice ((x0 nat)) (not (or (not (models (push_nat empty v0_nat x0) (leqR zeroR (inj_nat v0_nat)))) (models (push_nat empty v0_nat (s x0)) (leqR zeroR (inj_nat v0_nat))))))) (inj_nat v0_nat))))))))
(assert (or (=> (and (not (leq (eval_nat (push_nat empty v0_nat (s (choice ((x0 nat)) (not (or (not (models (push_nat empty v0_nat x0) (leqR zeroR (inj_nat v0_nat)))) (models (push_nat empty v0_nat (s x0)) (leqR zeroR (inj_nat v0_nat)))))))) zeroR) (eval_nat (push_nat empty v0_nat (s (choice ((x0 nat)) (not (or (not (models (push_nat empty v0_nat x0) (leqR zeroR (inj_nat v0_nat)))) (models (push_nat empty v0_nat (s x0)) (leqR zeroR (inj_nat v0_nat)))))))) (inj_nat v0_nat)))) (= zero (eval_nat (push_nat empty v0_nat (s (choice ((x0 nat)) (not (or (not (models (push_nat empty v0_nat x0) (leqR zeroR (inj_nat v0_nat)))) (models (push_nat empty v0_nat (s x0)) (leqR zeroR (inj_nat v0_nat)))))))) zeroR)) (= zero (eval_nat (push_nat empty v0_nat (choice ((x0 nat)) (not (or (not (models (push_nat empty v0_nat x0) (leqR zeroR (inj_nat v0_nat)))) (models (push_nat empty v0_nat (s x0)) (leqR zeroR (inj_nat v0_nat))))))) zeroR)) (= (evalV_nat (push_nat empty v0_nat (s (choice ((x0 nat)) (not (or (not (models (push_nat empty v0_nat x0) (leqR zeroR (inj_nat v0_nat)))) (models (push_nat empty v0_nat (s x0)) (leqR zeroR (inj_nat v0_nat)))))))) v0_nat) (eval_nat (push_nat empty v0_nat (s (choice ((x0 nat)) (not (or (not (models (push_nat empty v0_nat x0) (leqR zeroR (inj_nat v0_nat)))) (models (push_nat empty v0_nat (s x0)) (leqR zeroR (inj_nat v0_nat)))))))) (inj_nat v0_nat))) (= (s (choice ((x0 nat)) (not (or (not (models (push_nat empty v0_nat x0) (leqR zeroR (inj_nat v0_nat)))) (models (push_nat empty v0_nat (s x0)) (leqR zeroR (inj_nat v0_nat))))))) (evalV_nat (push_nat empty v0_nat (s (choice ((x0 nat)) (not (or (not (models (push_nat empty v0_nat x0) (leqR zeroR (inj_nat v0_nat)))) (models (push_nat empty v0_nat (s x0)) (leqR zeroR (inj_nat v0_nat)))))))) v0_nat)) (= (choice ((x0 nat)) (not (or (not (models (push_nat empty v0_nat x0) (leqR zeroR (inj_nat v0_nat)))) (models (push_nat empty v0_nat (s x0)) (leqR zeroR (inj_nat v0_nat)))))) (evalV_nat (push_nat empty v0_nat (choice ((x0 nat)) (not (or (not (models (push_nat empty v0_nat x0) (leqR zeroR (inj_nat v0_nat)))) (models (push_nat empty v0_nat (s x0)) (leqR zeroR (inj_nat v0_nat))))))) v0_nat)) (= (evalV_nat (push_nat empty v0_nat (choice ((x0 nat)) (not (or (not (models (push_nat empty v0_nat x0) (leqR zeroR (inj_nat v0_nat)))) (models (push_nat empty v0_nat (s x0)) (leqR zeroR (inj_nat v0_nat))))))) v0_nat) (eval_nat (push_nat empty v0_nat (choice ((x0 nat)) (not (or (not (models (push_nat empty v0_nat x0) (leqR zeroR (inj_nat v0_nat)))) (models (push_nat empty v0_nat (s x0)) (leqR zeroR (inj_nat v0_nat))))))) (inj_nat v0_nat)))) (not (leq (eval_nat (push_nat empty v0_nat (choice ((x0 nat)) (not (or (not (models (push_nat empty v0_nat x0) (leqR zeroR (inj_nat v0_nat)))) (models (push_nat empty v0_nat (s x0)) (leqR zeroR (inj_nat v0_nat))))))) zeroR) (s (eval_nat (push_nat empty v0_nat (choice ((x0 nat)) (not (or (not (models (push_nat empty v0_nat x0) (leqR zeroR (inj_nat v0_nat)))) (models (push_nat empty v0_nat (s x0)) (leqR zeroR (inj_nat v0_nat))))))) (inj_nat v0_nat)))))) (=> (and (not (leq (eval_nat (push_nat empty v0_nat (s (choice ((x0 nat)) (not (or (not (models (push_nat empty v0_nat x0) (leqR zeroR (inj_nat v0_nat)))) (models (push_nat empty v0_nat (s x0)) (leqR zeroR (inj_nat v0_nat)))))))) zeroR) (eval_nat (push_nat empty v0_nat (s (choice ((x0 nat)) (not (or (not (models (push_nat empty v0_nat x0) (leqR zeroR (inj_nat v0_nat)))) (models (push_nat empty v0_nat (s x0)) (leqR zeroR (inj_nat v0_nat)))))))) (inj_nat v0_nat)))) (= zero (eval_nat (push_nat empty v0_nat (s (choice ((x0 nat)) (not (or (not (models (push_nat empty v0_nat x0) (leqR zeroR (inj_nat v0_nat)))) (models (push_nat empty v0_nat (s x0)) (leqR zeroR (inj_nat v0_nat)))))))) zeroR)) (= zero (eval_nat (push_nat empty v0_nat (choice ((x0 nat)) (not (or (not (models (push_nat empty v0_nat x0) (leqR zeroR (inj_nat v0_nat)))) (models (push_nat empty v0_nat (s x0)) (leqR zeroR (inj_nat v0_nat))))))) zeroR)) (= (evalV_nat (push_nat empty v0_nat (s (choice ((x0 nat)) (not (or (not (models (push_nat empty v0_nat x0) (leqR zeroR (inj_nat v0_nat)))) (models (push_nat empty v0_nat (s x0)) (leqR zeroR (inj_nat v0_nat)))))))) v0_nat) (eval_nat (push_nat empty v0_nat (s (choice ((x0 nat)) (not (or (not (models (push_nat empty v0_nat x0) (leqR zeroR (inj_nat v0_nat)))) (models (push_nat empty v0_nat (s x0)) (leqR zeroR (inj_nat v0_nat)))))))) (inj_nat v0_nat))) (= (s (choice ((x0 nat)) (not (or (not (models (push_nat empty v0_nat x0) (leqR zeroR (inj_nat v0_nat)))) (models (push_nat empty v0_nat (s x0)) (leqR zeroR (inj_nat v0_nat))))))) (evalV_nat (push_nat empty v0_nat (s (choice ((x0 nat)) (not (or (not (models (push_nat empty v0_nat x0) (leqR zeroR (inj_nat v0_nat)))) (models (push_nat empty v0_nat (s x0)) (leqR zeroR (inj_nat v0_nat)))))))) v0_nat)) (= (choice ((x0 nat)) (not (or (not (models (push_nat empty v0_nat x0) (leqR zeroR (inj_nat v0_nat)))) (models (push_nat empty v0_nat (s x0)) (leqR zeroR (inj_nat v0_nat)))))) (evalV_nat (push_nat empty v0_nat (choice ((x0 nat)) (not (or (not (models (push_nat empty v0_nat x0) (leqR zeroR (inj_nat v0_nat)))) (models (push_nat empty v0_nat (s x0)) (leqR zeroR (inj_nat v0_nat))))))) v0_nat)) (= (evalV_nat (push_nat empty v0_nat (choice ((x0 nat)) (not (or (not (models (push_nat empty v0_nat x0) (leqR zeroR (inj_nat v0_nat)))) (models (push_nat empty v0_nat (s x0)) (leqR zeroR (inj_nat v0_nat))))))) v0_nat) (eval_nat (push_nat empty v0_nat (choice ((x0 nat)) (not (or (not (models (push_nat empty v0_nat x0) (leqR zeroR (inj_nat v0_nat)))) (models (push_nat empty v0_nat (s x0)) (leqR zeroR (inj_nat v0_nat))))))) (inj_nat v0_nat)))) (not (leq (eval_nat (push_nat empty v0_nat (choice ((x0 nat)) (not (or (not (models (push_nat empty v0_nat x0) (leqR zeroR (inj_nat v0_nat)))) (models (push_nat empty v0_nat (s x0)) (leqR zeroR (inj_nat v0_nat))))))) zeroR) (s (eval_nat (push_nat empty v0_nat (choice ((x0 nat)) (not (or (not (models (push_nat empty v0_nat x0) (leqR zeroR (inj_nat v0_nat)))) (models (push_nat empty v0_nat (s x0)) (leqR zeroR (inj_nat v0_nat))))))) (inj_nat v0_nat))))))))
(check-sat)
(exit)
